
Gurobi 9.5.1 (linux64) logging started Tue 16 Aug 2022 03:42:39 PM MST

Set parameter LogFile to value "/home/local/ASUAD/kmajd1/NNRepLayer_v2/demos/walking_example/global_constraint_upper_10/repair_net/logs/opt_log_multi_17.log"
Gurobi Optimizer version 9.5.1 build v9.5.1rc2 (linux64)
Thread count: 48 physical cores, 96 logical processors, using up to 45 threads
Optimize a model with 16863 rows, 10742 columns and 125055 nonzeros
Model fingerprint: 0x2899f06f
Model has 149 quadratic objective terms
Variable types: 5974 continuous, 4768 integer (4768 binary)
Coefficient statistics:
  Matrix range     [2e-04, 2e+02]
  Objective range  [4e-03, 1e+00]
  QObjective range [1e-02, 1e-02]
  Bounds range     [1e+00, 1e+03]
  RHS range        [8e-05, 2e+02]

Concurrent MIP optimizer: 3 concurrent instances (15 threads per instance)

Presolve removed 682 rows and 192 columns
Presolve time: 0.17s
Presolved: 16181 rows, 10550 columns, 123989 nonzeros
Presolved model has 149 quadratic objective terms
Variable types: 5782 continuous, 4768 integer (4768 binary)
Root relaxation presolve removed 4768 rows and 4768 columns
Root relaxation presolved: 11413 rows, 5782 columns, 109685 nonzeros
Root relaxation presolved model has 149 quadratic objective terms


Root relaxation: objective 2.847788e+01, 6767 iterations, 0.17 seconds (0.23 work units)

    Nodes    |    Current Node    |     Objective Bounds      |     Work
 Expl Unexpl |  Obj  Depth IntInf | Incumbent    BestBd   Gap | It/Node Time

     0     0      -    -    -      184.19653   28.47788  84.5%     -    0s
     0     0      -    -    -      183.21106   28.47788  84.5%     -    3s
     0     2      -    -    -      180.89629   28.47788  84.3%     -    5s
   222   242      -    -    -      176.17409   28.47788  83.8%     -   16s
   241   257      -    -    -      173.99972   28.47788  83.6%     -   22s
   283   304      -    -    -       33.22002   28.47788  14.3%     -   28s
   303   353      -    -    -       33.22002   28.47788  14.3%     -   30s
   352   368      -    -    -       33.12119   28.47788  14.0%     -   41s
  1074  1090      -    -    -       33.07760   28.47788  13.9%     -   49s
  1224  1362      -    -    -       33.07760   28.47788  13.9%     -   50s
  2121  2137      -    -    -       33.03387   28.47788  13.8%     -   58s
  2841  3049      -    -    -       33.03387   28.47788  13.8%     -   60s
  6626  7004      -    -    -       33.03387   28.47788  13.8%     -   65s
  7003  7150      -    -    -       33.03387   28.47788  13.8%     -   79s
  7149  7589      -    -    -       33.03387   28.47788  13.8%     -   80s
  9756 10185      -    -    -       33.01750   28.47788  13.7%     -   92s
 10185 10186      -    -    -       33.01750   28.47788  13.7%     -  107s
 10187  9677      -    -    -       33.01503   28.47788  13.7%     -  112s
 10189  9679      -    -    -       32.97344   28.47788  13.6%     -  124s
 10192  9686      -    -    -       32.97344   28.47788  13.6%     -  126s
 10219  9231      -    -    -       32.92795   28.47788  13.5%     -  137s
 10264  8801      -    -    -       32.90856   28.47788  13.5%     -  158s
 10279  7565      -    -    -       32.74008   28.47788  13.0%     -  180s
 11360  6896      -    -    -       32.71902   28.47788  13.0%     -  204s
 11375  6126      -    -    -       32.71902   28.47788  13.0%     -  205s
 14409  8271      -    -    -       32.71902   28.47788  13.0%     -  210s
 16048  9476      -    -    -       32.70576   28.47788  12.9%     -  215s
 17463 10176      -    -    -       32.70576   28.47788  12.9%     -  220s
 18788 11316      -    -    -       32.70576   28.47788  12.9%     -  228s
 19608 12008      -    -    -       32.70576   28.47788  12.9%     -  230s
 20106 13588      -    -    -       32.70576   28.47788  12.9%     -  236s
 21852 13794      -    -    -       32.70576   28.47788  12.9%     -  240s
 24392 14989      -    -    -       32.40886   28.47788  12.1%     -  245s
 25888 16126      -    -    -       32.40886   28.47788  12.1%     -  250s
 28780 19229      -    -    -       32.40886   28.47788  12.1%     -  257s
 29417 19547      -    -    -       32.40886   28.47788  12.1%     -  263s
 29735 20222      -    -    -       32.40886   28.47788  12.1%     -  268s
 30410 20858      -    -    -       32.40886   28.47788  12.1%     -  272s
 31046 21197      -    -    -       32.40886   28.47788  12.1%     -  280s
 31385 21584      -    -    -       32.40886   28.47788  12.1%     -  291s

Resetting heuristic parameters to focus on improving solution
(using Heuristics=0.5 and RINS=10)...

 31772 22064      -    -    -       32.07626   28.47788  11.2%     -  307s
 32252 22145      -    -    -       32.02465   28.47788  11.1%     -  352s

Instance 0 was solved

Explored 32333 nodes (4909143 simplex iterations) in 353.35 seconds (825.93 work units)
Thread count was 15 (of 96 available processors)

Solution count 10: 31.9851 31.9901 31.9967 ... 32.0761 

Optimal solution found (tolerance 1.10e-01)
Best objective 3.198508486980e+01, best bound 2.847787682298e+01, gap 10.9651%
